\ This file has been generated by DOcplex
\ ENCODING=ISO-8859-1
\Problem name: tiger problem

Maximize
 obj: V0 + V1 + V2
Subject To
 c1: V0 + 2 a0_0 + 46 a0_1 + 46 a0_2 <= 0
 c2: V1 + 46 a0_0 + 15 a0_1 + 100 a0_2 <= 0
 c3: V2 + 46 a0_0 + 100 a0_1 + 15 a0_2 <= 0
 c4: a0_0 + a0_1 + a0_2 = 1

Bounds
       a0_0 <= 1
       a0_1 <= 1
       a0_2 <= 1
End
